1_4_model.mps
NAME master
ROWS
 N  OBJ
 E  EmpiricalRestrictions[0]
 E  EmpiricalRestrictions[1]
 E  EmpiricalRestrictions[2]
 E  EmpiricalRestrictions[3]
 E  EmpiricalRestrictions[4]
 E  EmpiricalRestrictions[5]
 E  EmpiricalRestrictions[6]
 E  EmpiricalRestrictions[7]
 E  EmpiricalRestrictions[8]
 E  EmpiricalRestrictions[9]
 E  EmpiricalRestrictions[10]
 E  EmpiricalRestrictions[11]
 E  EmpiricalRestrictions[12]
 E  EmpiricalRestrictions[13]
 E  EmpiricalRestrictions[14]
 E  EmpiricalRestrictions[15]
 E  EmpiricalRestrictions[16]
 E  EmpiricalRestrictions[17]
 E  EmpiricalRestrictions[18]
 E  EmpiricalRestrictions[19]
 E  EmpiricalRestrictions[20]
 E  EmpiricalRestrictions[21]
 E  EmpiricalRestrictions[22]
 E  EmpiricalRestrictions[23]
 E  EmpiricalRestrictions[24]
 E  EmpiricalRestrictions[25]
 E  EmpiricalRestrictions[26]
 E  EmpiricalRestrictions[27]
 E  EmpiricalRestrictions[28]
 E  EmpiricalRestrictions[29]
 E  EmpiricalRestrictions[30]
 E  EmpiricalRestrictions[31]
 E  EmpiricalRestrictions[32]
 E  EmpiricalRestrictions[33]
 E  EmpiricalRestrictions[34]
 E  EmpiricalRestrictions[35]
 E  EmpiricalRestrictions[36]
 E  EmpiricalRestrictions[37]
 E  EmpiricalRestrictions[38]
 E  EmpiricalRestrictions[39]
 E  EmpiricalRestrictions[40]
 E  EmpiricalRestrictions[41]
 E  EmpiricalRestrictions[42]
 E  EmpiricalRestrictions[43]
 E  EmpiricalRestrictions[44]
 E  EmpiricalRestrictions[45]
 E  EmpiricalRestrictions[46]
 E  EmpiricalRestrictions[47]
 E  EmpiricalRestrictions[48]
 E  EmpiricalRestrictions[49]
 E  EmpiricalRestrictions[50]
 E  EmpiricalRestrictions[51]
 E  EmpiricalRestrictions[52]
 E  EmpiricalRestrictions[53]
 E  EmpiricalRestrictions[54]
 E  EmpiricalRestrictions[55]
 E  EmpiricalRestrictions[56]
 E  EmpiricalRestrictions[57]
 E  EmpiricalRestrictions[58]
 E  EmpiricalRestrictions[59]
 E  EmpiricalRestrictions[60]
 E  EmpiricalRestrictions[61]
 E  EmpiricalRestrictions[62]
 E  EmpiricalRestrictions[63]
 E  EmpiricalRestrictions[64]
COLUMNS
    BaseColumns[0]  OBJ       10000
    BaseColumns[0]  EmpiricalRestrictions[0]  1
    BaseColumns[1]  OBJ       10000
    BaseColumns[1]  EmpiricalRestrictions[1]  1
    BaseColumns[2]  OBJ       10000
    BaseColumns[2]  EmpiricalRestrictions[2]  1
    BaseColumns[3]  OBJ       10000
    BaseColumns[3]  EmpiricalRestrictions[3]  1
    BaseColumns[4]  OBJ       10000
    BaseColumns[4]  EmpiricalRestrictions[4]  1
    BaseColumns[5]  OBJ       10000
    BaseColumns[5]  EmpiricalRestrictions[5]  1
    BaseColumns[6]  OBJ       10000
    BaseColumns[6]  EmpiricalRestrictions[6]  1
    BaseColumns[7]  OBJ       10000
    BaseColumns[7]  EmpiricalRestrictions[7]  1
    BaseColumns[8]  OBJ       10000
    BaseColumns[8]  EmpiricalRestrictions[8]  1
    BaseColumns[9]  OBJ       10000
    BaseColumns[9]  EmpiricalRestrictions[9]  1
    BaseColumns[10]  OBJ       10000
    BaseColumns[10]  EmpiricalRestrictions[10]  1
    BaseColumns[11]  OBJ       10000
    BaseColumns[11]  EmpiricalRestrictions[11]  1
    BaseColumns[12]  OBJ       10000
    BaseColumns[12]  EmpiricalRestrictions[12]  1
    BaseColumns[13]  OBJ       10000
    BaseColumns[13]  EmpiricalRestrictions[13]  1
    BaseColumns[14]  OBJ       10000
    BaseColumns[14]  EmpiricalRestrictions[14]  1
    BaseColumns[15]  OBJ       10000
    BaseColumns[15]  EmpiricalRestrictions[15]  1
    BaseColumns[16]  OBJ       10000
    BaseColumns[16]  EmpiricalRestrictions[16]  1
    BaseColumns[17]  OBJ       10000
    BaseColumns[17]  EmpiricalRestrictions[17]  1
    BaseColumns[18]  OBJ       10000
    BaseColumns[18]  EmpiricalRestrictions[18]  1
    BaseColumns[19]  OBJ       10000
    BaseColumns[19]  EmpiricalRestrictions[19]  1
    BaseColumns[20]  OBJ       10000
    BaseColumns[20]  EmpiricalRestrictions[20]  1
    BaseColumns[21]  OBJ       10000
    BaseColumns[21]  EmpiricalRestrictions[21]  1
    BaseColumns[22]  OBJ       10000
    BaseColumns[22]  EmpiricalRestrictions[22]  1
    BaseColumns[23]  OBJ       10000
    BaseColumns[23]  EmpiricalRestrictions[23]  1
    BaseColumns[24]  OBJ       10000
    BaseColumns[24]  EmpiricalRestrictions[24]  1
    BaseColumns[25]  OBJ       10000
    BaseColumns[25]  EmpiricalRestrictions[25]  1
    BaseColumns[26]  OBJ       10000
    BaseColumns[26]  EmpiricalRestrictions[26]  1
    BaseColumns[27]  OBJ       10000
    BaseColumns[27]  EmpiricalRestrictions[27]  1
    BaseColumns[28]  OBJ       10000
    BaseColumns[28]  EmpiricalRestrictions[28]  1
    BaseColumns[29]  OBJ       10000
    BaseColumns[29]  EmpiricalRestrictions[29]  1
    BaseColumns[30]  OBJ       10000
    BaseColumns[30]  EmpiricalRestrictions[30]  1
    BaseColumns[31]  OBJ       10000
    BaseColumns[31]  EmpiricalRestrictions[31]  1
    BaseColumns[32]  OBJ       10000
    BaseColumns[32]  EmpiricalRestrictions[32]  1
    BaseColumns[33]  OBJ       10000
    BaseColumns[33]  EmpiricalRestrictions[33]  1
    BaseColumns[34]  OBJ       10000
    BaseColumns[34]  EmpiricalRestrictions[34]  1
    BaseColumns[35]  OBJ       10000
    BaseColumns[35]  EmpiricalRestrictions[35]  1
    BaseColumns[36]  OBJ       10000
    BaseColumns[36]  EmpiricalRestrictions[36]  1
    BaseColumns[37]  OBJ       10000
    BaseColumns[37]  EmpiricalRestrictions[37]  1
    BaseColumns[38]  OBJ       10000
    BaseColumns[38]  EmpiricalRestrictions[38]  1
    BaseColumns[39]  OBJ       10000
    BaseColumns[39]  EmpiricalRestrictions[39]  1
    BaseColumns[40]  OBJ       10000
    BaseColumns[40]  EmpiricalRestrictions[40]  1
    BaseColumns[41]  OBJ       10000
    BaseColumns[41]  EmpiricalRestrictions[41]  1
    BaseColumns[42]  OBJ       10000
    BaseColumns[42]  EmpiricalRestrictions[42]  1
    BaseColumns[43]  OBJ       10000
    BaseColumns[43]  EmpiricalRestrictions[43]  1
    BaseColumns[44]  OBJ       10000
    BaseColumns[44]  EmpiricalRestrictions[44]  1
    BaseColumns[45]  OBJ       10000
    BaseColumns[45]  EmpiricalRestrictions[45]  1
    BaseColumns[46]  OBJ       10000
    BaseColumns[46]  EmpiricalRestrictions[46]  1
    BaseColumns[47]  OBJ       10000
    BaseColumns[47]  EmpiricalRestrictions[47]  1
    BaseColumns[48]  OBJ       10000
    BaseColumns[48]  EmpiricalRestrictions[48]  1
    BaseColumns[49]  OBJ       10000
    BaseColumns[49]  EmpiricalRestrictions[49]  1
    BaseColumns[50]  OBJ       10000
    BaseColumns[50]  EmpiricalRestrictions[50]  1
    BaseColumns[51]  OBJ       10000
    BaseColumns[51]  EmpiricalRestrictions[51]  1
    BaseColumns[52]  OBJ       10000
    BaseColumns[52]  EmpiricalRestrictions[52]  1
    BaseColumns[53]  OBJ       10000
    BaseColumns[53]  EmpiricalRestrictions[53]  1
    BaseColumns[54]  OBJ       10000
    BaseColumns[54]  EmpiricalRestrictions[54]  1
    BaseColumns[55]  OBJ       10000
    BaseColumns[55]  EmpiricalRestrictions[55]  1
    BaseColumns[56]  OBJ       10000
    BaseColumns[56]  EmpiricalRestrictions[56]  1
    BaseColumns[57]  OBJ       10000
    BaseColumns[57]  EmpiricalRestrictions[57]  1
    BaseColumns[58]  OBJ       10000
    BaseColumns[58]  EmpiricalRestrictions[58]  1
    BaseColumns[59]  OBJ       10000
    BaseColumns[59]  EmpiricalRestrictions[59]  1
    BaseColumns[60]  OBJ       10000
    BaseColumns[60]  EmpiricalRestrictions[60]  1
    BaseColumns[61]  OBJ       10000
    BaseColumns[61]  EmpiricalRestrictions[61]  1
    BaseColumns[62]  OBJ       10000
    BaseColumns[62]  EmpiricalRestrictions[62]  1
    BaseColumns[63]  OBJ       10000
    BaseColumns[63]  EmpiricalRestrictions[63]  1
    BaseColumns[64]  OBJ       10000
    BaseColumns[64]  EmpiricalRestrictions[64]  1
    Variable[65]  OBJ       9.6719932716568535e-02
    Variable[65]  EmpiricalRestrictions[0]  1
    Variable[65]  EmpiricalRestrictions[1]  1
    Variable[65]  EmpiricalRestrictions[2]  1
    Variable[65]  EmpiricalRestrictions[3]  1
    Variable[65]  EmpiricalRestrictions[4]  1
    Variable[65]  EmpiricalRestrictions[5]  1
    Variable[65]  EmpiricalRestrictions[6]  1
    Variable[65]  EmpiricalRestrictions[7]  1
    Variable[65]  EmpiricalRestrictions[8]  1
    Variable[65]  EmpiricalRestrictions[9]  1
    Variable[65]  EmpiricalRestrictions[10]  1
    Variable[65]  EmpiricalRestrictions[11]  1
    Variable[65]  EmpiricalRestrictions[12]  1
    Variable[65]  EmpiricalRestrictions[13]  1
    Variable[65]  EmpiricalRestrictions[14]  1
    Variable[65]  EmpiricalRestrictions[15]  1
    Variable[65]  EmpiricalRestrictions[64]  1
    Variable[66]  OBJ       9.6719932716568535e-02
    Variable[66]  EmpiricalRestrictions[0]  1
    Variable[66]  EmpiricalRestrictions[1]  1
    Variable[66]  EmpiricalRestrictions[2]  1
    Variable[66]  EmpiricalRestrictions[3]  1
    Variable[66]  EmpiricalRestrictions[4]  1
    Variable[66]  EmpiricalRestrictions[5]  1
    Variable[66]  EmpiricalRestrictions[6]  1
    Variable[66]  EmpiricalRestrictions[7]  1
    Variable[66]  EmpiricalRestrictions[8]  1
    Variable[66]  EmpiricalRestrictions[9]  1
    Variable[66]  EmpiricalRestrictions[10]  1
    Variable[66]  EmpiricalRestrictions[11]  1
    Variable[66]  EmpiricalRestrictions[12]  1
    Variable[66]  EmpiricalRestrictions[13]  1
    Variable[66]  EmpiricalRestrictions[15]  1
    Variable[66]  EmpiricalRestrictions[30]  1
    Variable[66]  EmpiricalRestrictions[64]  1
    Variable[67]  OBJ       9.6719932716568535e-02
    Variable[67]  EmpiricalRestrictions[0]  1
    Variable[67]  EmpiricalRestrictions[1]  1
    Variable[67]  EmpiricalRestrictions[2]  1
    Variable[67]  EmpiricalRestrictions[3]  1
    Variable[67]  EmpiricalRestrictions[4]  1
    Variable[67]  EmpiricalRestrictions[5]  1
    Variable[67]  EmpiricalRestrictions[6]  1
    Variable[67]  EmpiricalRestrictions[7]  1
    Variable[67]  EmpiricalRestrictions[8]  1
    Variable[67]  EmpiricalRestrictions[9]  1
    Variable[67]  EmpiricalRestrictions[10]  1
    Variable[67]  EmpiricalRestrictions[11]  1
    Variable[67]  EmpiricalRestrictions[12]  1
    Variable[67]  EmpiricalRestrictions[14]  1
    Variable[67]  EmpiricalRestrictions[15]  1
    Variable[67]  EmpiricalRestrictions[29]  1
    Variable[67]  EmpiricalRestrictions[64]  1
    Variable[68]  OBJ       9.6719932716568535e-02
    Variable[68]  EmpiricalRestrictions[32]  1
    Variable[68]  EmpiricalRestrictions[33]  1
    Variable[68]  EmpiricalRestrictions[34]  1
    Variable[68]  EmpiricalRestrictions[35]  1
    Variable[68]  EmpiricalRestrictions[36]  1
    Variable[68]  EmpiricalRestrictions[37]  1
    Variable[68]  EmpiricalRestrictions[38]  1
    Variable[68]  EmpiricalRestrictions[39]  1
    Variable[68]  EmpiricalRestrictions[40]  1
    Variable[68]  EmpiricalRestrictions[41]  1
    Variable[68]  EmpiricalRestrictions[42]  1
    Variable[68]  EmpiricalRestrictions[43]  1
    Variable[68]  EmpiricalRestrictions[44]  1
    Variable[68]  EmpiricalRestrictions[45]  1
    Variable[68]  EmpiricalRestrictions[46]  1
    Variable[68]  EmpiricalRestrictions[47]  1
    Variable[68]  EmpiricalRestrictions[64]  1
    Variable[69]  OBJ       9.6719932716568535e-02
    Variable[69]  EmpiricalRestrictions[32]  1
    Variable[69]  EmpiricalRestrictions[33]  1
    Variable[69]  EmpiricalRestrictions[34]  1
    Variable[69]  EmpiricalRestrictions[35]  1
    Variable[69]  EmpiricalRestrictions[36]  1
    Variable[69]  EmpiricalRestrictions[37]  1
    Variable[69]  EmpiricalRestrictions[38]  1
    Variable[69]  EmpiricalRestrictions[39]  1
    Variable[69]  EmpiricalRestrictions[40]  1
    Variable[69]  EmpiricalRestrictions[41]  1
    Variable[69]  EmpiricalRestrictions[42]  1
    Variable[69]  EmpiricalRestrictions[43]  1
    Variable[69]  EmpiricalRestrictions[44]  1
    Variable[69]  EmpiricalRestrictions[46]  1
    Variable[69]  EmpiricalRestrictions[47]  1
    Variable[69]  EmpiricalRestrictions[61]  1
    Variable[69]  EmpiricalRestrictions[64]  1
RHS
    RHS1      EmpiricalRestrictions[0]  4.6644541484716162e-01
    RHS1      EmpiricalRestrictions[1]  4.7288333333333343e-01
    RHS1      EmpiricalRestrictions[2]  4.6185258620689656e-01
    RHS1      EmpiricalRestrictions[3]  4.4506666666666672e-01
    RHS1      EmpiricalRestrictions[4]  4.5145081967213113e-01
    RHS1      EmpiricalRestrictions[5]  0.4381125
    RHS1      EmpiricalRestrictions[6]  0.5007
    RHS1      EmpiricalRestrictions[8]  8.0758064516129047e-03
    RHS1      EmpiricalRestrictions[10]  4.5518181818181826e-02
    RHS1      EmpiricalRestrictions[15]  1.0818222584590299e-02
    RHS1      EmpiricalRestrictions[16]  3.4254585152838427e-02
    RHS1      EmpiricalRestrictions[17]  2.7816666666666670e-02
    RHS1      EmpiricalRestrictions[18]  3.8847413793103455e-02
    RHS1      EmpiricalRestrictions[19]  5.5633333333333340e-02
    RHS1      EmpiricalRestrictions[20]  4.9249180327868847e-02
    RHS1      EmpiricalRestrictions[21]  0.0625875
    RHS1      EmpiricalRestrictions[24]  4.9262419354838721e-01
    RHS1      EmpiricalRestrictions[25]  0.5007
    RHS1      EmpiricalRestrictions[26]  4.5518181818181819e-01
    RHS1      EmpiricalRestrictions[27]  0.5007
    RHS1      EmpiricalRestrictions[28]  0.5007
    RHS1      EmpiricalRestrictions[30]  0.5007
    RHS1      EmpiricalRestrictions[31]  4.8988177741540972e-01
    RHS1      EmpiricalRestrictions[32]  7.8091886608015644e-03
    RHS1      EmpiricalRestrictions[33]  1.4978999999999998e-02
    RHS1      EmpiricalRestrictions[34]  8.8371681415929226e-03
    RHS1      EmpiricalRestrictions[36]  1.4542718446601941e-02
    RHS1      EmpiricalRestrictions[40]  4.8265666666666662e-01
    RHS1      EmpiricalRestrictions[41]  0.4993
    RHS1      EmpiricalRestrictions[42]  0.4993
    RHS1      EmpiricalRestrictions[44]  0.4993
    RHS1      EmpiricalRestrictions[46]  0.4993
    RHS1      EmpiricalRestrictions[47]  4.6200872022607992e-01
    RHS1      EmpiricalRestrictions[48]  4.9149081133919847e-01
    RHS1      EmpiricalRestrictions[49]  0.484321
    RHS1      EmpiricalRestrictions[50]  4.9046283185840717e-01
    RHS1      EmpiricalRestrictions[51]  0.4993
    RHS1      EmpiricalRestrictions[52]  4.8475728155339809e-01
    RHS1      EmpiricalRestrictions[53]  0.4993
    RHS1      EmpiricalRestrictions[54]  0.4993
    RHS1      EmpiricalRestrictions[56]  1.6643333333333333e-02
    RHS1      EmpiricalRestrictions[63]  3.7291279773920064e-02
    RHS1      EmpiricalRestrictions[64]  1
BOUNDS
ENDATA
